p cnf 243 168
c p distribution  0.875 0.125
c p distribution  0.875 0.125
c p distribution  0.875 0.125
c p distribution  0.875 0.125
c p distribution  0.875 0.125
c p distribution  0.875 0.125
c p distribution  0.875 0.125
c p distribution  0.875 0.125
c p distribution  0.875 0.125
c p distribution  0.875 0.125
c p distribution  0.875 0.125
c p distribution  0.875 0.125
c p distribution  0.875 0.125
c p distribution  0.875 0.125
c p distribution  0.875 0.125
c p distribution  0.875 0.125
c p distribution  0.875 0.125
c p distribution  0.875 0.125
c p distribution  0.875 0.125
c p distribution  0.875 0.125
c p distribution  0.875 0.125
c p distribution  0.875 0.125
c p distribution  0.875 0.125
c p distribution  0.875 0.125
c p distribution  0.875 0.125
c p distribution  0.875 0.125
c p distribution  0.875 0.125
c p distribution  0.875 0.125
c p distribution  0.875 0.125
c p distribution  0.875 0.125
c p distribution  0.875 0.125
c p distribution  0.875 0.125
c p distribution  0.875 0.125
c p distribution  0.875 0.125
c p distribution  0.875 0.125
c p distribution  0.875 0.125
c p distribution  0.875 0.125
c p distribution  0.875 0.125
c p distribution  0.875 0.125
c p distribution  0.875 0.125
c p distribution  0.875 0.125
c p distribution  0.875 0.125
c p distribution  0.875 0.125
c p distribution  0.875 0.125
c p distribution  0.875 0.125
c p distribution  0.875 0.125
c p distribution  0.875 0.125
c p distribution  0.875 0.125
c p distribution  0.875 0.125
c p distribution  0.875 0.125
c p distribution  0.875 0.125
c p distribution  0.875 0.125
c p distribution  0.875 0.125
c p distribution  0.875 0.125
c p distribution  0.875 0.125
c p distribution  0.875 0.125
c p distribution  0.875 0.125
c p distribution  0.875 0.125
c p distribution  0.875 0.125
c p distribution  0.875 0.125
c p distribution  0.875 0.125
c p distribution  0.875 0.125
c p distribution  0.875 0.125
c p distribution  0.875 0.125
c p distribution  0.875 0.125
c p distribution  0.875 0.125
c p distribution  0.875 0.125
c p distribution  0.875 0.125
c p distribution  0.875 0.125
c p distribution  0.875 0.125
c p distribution  0.875 0.125
c p distribution  0.875 0.125
c p distribution  0.875 0.125
c p distribution  0.875 0.125
c p distribution  0.875 0.125
c p distribution  0.875 0.125
c p distribution  0.875 0.125
c p distribution  0.875 0.125
c p distribution  0.875 0.125
c p distribution  0.875 0.125
c p distribution  0.875 0.125
c p distribution  0.875 0.125
c p distribution  0.875 0.125
182 0
-176 0
232 -206 -1 0
206 -232 -1 0
172 -237 -3 0
237 -172 -3 0
179 -209 -5 0
209 -179 -5 0
177 -169 -7 0
169 -177 -7 0
236 -201 -9 0
201 -236 -9 0
197 -182 -11 0
182 -197 -11 0
177 -169 -13 0
169 -177 -13 0
223 -217 -15 0
217 -223 -15 0
207 -168 -17 0
168 -207 -17 0
213 -205 -19 0
205 -213 -19 0
222 -207 -21 0
207 -222 -21 0
178 -190 -23 0
190 -178 -23 0
226 -176 -25 0
176 -226 -25 0
174 -229 -27 0
229 -174 -27 0
188 -223 -29 0
223 -188 -29 0
221 -174 -31 0
174 -221 -31 0
185 -196 -33 0
196 -185 -33 0
184 -197 -35 0
197 -184 -35 0
186 -183 -37 0
183 -186 -37 0
238 -193 -39 0
193 -238 -39 0
167 -227 -41 0
227 -167 -41 0
186 -239 -43 0
239 -186 -43 0
180 -170 -45 0
170 -180 -45 0
173 -206 -47 0
206 -173 -47 0
208 -231 -49 0
231 -208 -49 0
225 -193 -51 0
193 -225 -51 0
169 -194 -53 0
194 -169 -53 0
199 -218 -55 0
218 -199 -55 0
225 -181 -57 0
181 -225 -57 0
240 -204 -59 0
204 -240 -59 0
176 -185 -61 0
185 -176 -61 0
192 -195 -63 0
195 -192 -63 0
181 -192 -65 0
192 -181 -65 0
178 -175 -67 0
175 -178 -67 0
233 -217 -69 0
217 -233 -69 0
228 -168 -71 0
168 -228 -71 0
191 -232 -73 0
232 -191 -73 0
243 -203 -75 0
203 -243 -75 0
200 -234 -77 0
234 -200 -77 0
186 -229 -79 0
229 -186 -79 0
220 -207 -81 0
207 -220 -81 0
233 -187 -83 0
187 -233 -83 0
179 -195 -85 0
195 -179 -85 0
178 -187 -87 0
187 -178 -87 0
236 -207 -89 0
207 -236 -89 0
220 -200 -91 0
200 -220 -91 0
225 -189 -93 0
189 -225 -93 0
191 -206 -95 0
206 -191 -95 0
224 -229 -97 0
229 -224 -97 0
198 -182 -99 0
182 -198 -99 0
219 -237 -101 0
237 -219 -101 0
221 -199 -103 0
199 -221 -103 0
226 -228 -105 0
228 -226 -105 0
242 -171 -107 0
171 -242 -107 0
223 -211 -109 0
211 -223 -109 0
243 -200 -111 0
200 -243 -111 0
235 -211 -113 0
211 -235 -113 0
200 -194 -115 0
194 -200 -115 0
189 -192 -117 0
192 -189 -117 0
177 -169 -119 0
169 -177 -119 0
227 -234 -121 0
234 -227 -121 0
241 -205 -123 0
205 -241 -123 0
177 -169 -125 0
169 -177 -125 0
194 -209 -127 0
209 -194 -127 0
238 -219 -129 0
219 -238 -129 0
201 -205 -131 0
205 -201 -131 0
240 -224 -133 0
224 -240 -133 0
194 -168 -135 0
168 -194 -135 0
189 -193 -137 0
193 -189 -137 0
200 -239 -139 0
239 -200 -139 0
238 -181 -141 0
181 -238 -141 0
176 -210 -143 0
210 -176 -143 0
227 -239 -145 0
239 -227 -145 0
192 -169 -147 0
169 -192 -147 0
214 -188 -149 0
188 -214 -149 0
241 -201 -151 0
201 -241 -151 0
243 -183 -153 0
183 -243 -153 0
211 -217 -155 0
217 -211 -155 0
228 -168 -157 0
168 -228 -157 0
176 -215 -159 0
215 -176 -159 0
178 -190 -161 0
190 -178 -161 0
192 -193 -163 0
193 -192 -163 0
188 -223 -165 0
223 -188 -165 0

